words_hard_train/1224.qaiger
aag 153 16 0 1 137
2
4
8
16
28
36
48
56
68
76
88
96
108
116
130
278
306
6 2 4
10 4 8
12 5 9
14 11 13
18 15 17
20 14 16
22 19 21
24 6 22
26 25 21
30 13 28
32 12 29
34 31 33
38 35 37
40 34 36
42 39 41
44 27 42
46 45 41
50 33 48
52 32 49
54 51 53
58 55 57
60 54 56
62 59 61
64 47 62
66 65 61
70 53 68
72 52 69
74 71 73
78 75 77
80 74 76
82 79 81
84 67 82
86 85 81
90 73 88
92 72 89
94 91 93
98 95 97
100 94 96
102 99 101
104 87 102
106 105 101
110 93 108
112 92 109
114 111 113
118 115 117
120 114 116
122 119 121
124 106 123
126 107 122
128 125 127
132 113 131
134 133 115
136 109 131
138 135 137
140 73 130
142 141 89
144 140 88
146 143 145
148 53 130
150 148 68
152 149 69
154 151 153
156 33 130
158 157 49
160 156 48
162 159 161
164 13 130
166 165 29
168 164 28
170 167 169
172 4 130
174 173 11
176 8 130
178 175 177
180 170 178
182 162 180
184 154 182
186 146 184
188 139 187
190 138 186
192 189 191
194 129 193
196 128 192
198 195 197
200 86 103
202 201 105
204 147 185
206 205 187
208 203 207
210 202 206
212 209 211
214 66 83
216 215 85
218 155 183
220 219 185
222 217 220
224 46 63
226 225 65
228 163 181
230 229 183
232 227 230
234 223 233
236 7 23
238 237 25
240 179 13
242 239 240
244 243 2
246 238 241
248 244 247
250 234 248
252 213 250
254 226 231
256 216 221
258 255 257
260 26 43
262 261 45
264 171 179
266 265 181
268 263 266
270 262 267
272 269 271
274 258 272
276 252 274
280 133 279
282 132 278
284 281 283
286 112 130
288 287 190
290 285 289
292 284 288
294 291 293
296 127 121
298 295 296
300 294 297
302 299 301
304 276 303
306 199 304
i0 2 y2[0]
i1 1 x1[0]
i2 1 x1[1]
i3 2 y2[1]
i4 1 x1[2]
i5 2 y2[2]
i6 1 x1[3]
i7 2 y2[3]
i8 1 x1[4]
i9 2 y2[4]
i10 1 x1[5]
i11 2 y2[5]
i12 1 x1[6]
i13 2 y2[6]
i14 1 x1[7]
i15 2 y2[7]
o0 bool[0]
c
simplified
  ==
    add
      abs
        1 x1
      1
    subtract
      2 y2
      1 x1
