words_hard_train/1224.qaiger.qdimacs
p cnf 153 412
a 65 2 34 4 44 14 54 24 0
e 1 3 5 6 7 8 9 10 11 12 13 15 16 17 18 19 20 21 22 23 25 26 27 28 29 30 31 32 33 35 36 37 38 39 40 41 42 43 45 46 47 48 49 50 51 52 53 55 56 57 58 59 60 61 62 63 64 66 67 68 69 70 71 72 73 74 75 76 77 78 79 80 81 82 83 84 85 86 87 88 89 90 91 92 93 94 95 96 97 98 99 100 101 102 103 104 105 106 107 108 109 110 111 112 113 114 115 116 117 118 119 120 121 122 123 124 125 126 127 128 129 130 131 132 133 134 135 136 137 138 139 140 141 142 143 144 145 146 147 148 149 150 151 152 153 0
-1 -2 3 0
1 -3 0
2 -3 0
-2 -4 5 0
2 -5 0
4 -5 0
2 4 6 0
-2 -6 0
-4 -6 0
5 6 7 0
-5 -7 0
-6 -7 0
7 8 9 0
-7 -9 0
-8 -9 0
-7 -8 10 0
7 -10 0
8 -10 0
9 10 11 0
-9 -11 0
-10 -11 0
-3 -11 12 0
3 -12 0
11 -12 0
12 10 13 0
-12 -13 0
-10 -13 0
6 -14 15 0
-6 -15 0
14 -15 0
-6 14 16 0
6 -16 0
-14 -16 0
15 16 17 0
-15 -17 0
-16 -17 0
17 18 19 0
-17 -19 0
-18 -19 0
-17 -18 20 0
17 -20 0
18 -20 0
19 20 21 0
-19 -21 0
-20 -21 0
13 -21 22 0
-13 -22 0
21 -22 0
22 20 23 0
-22 -23 0
-20 -23 0
16 -24 25 0
-16 -25 0
24 -25 0
-16 24 26 0
16 -26 0
-24 -26 0
25 26 27 0
-25 -27 0
-26 -27 0
27 28 29 0
-27 -29 0
-28 -29 0
-27 -28 30 0
27 -30 0
28 -30 0
29 30 31 0
-29 -31 0
-30 -31 0
23 -31 32 0
-23 -32 0
31 -32 0
32 30 33 0
-32 -33 0
-30 -33 0
26 -34 35 0
-26 -35 0
34 -35 0
-26 34 36 0
26 -36 0
-34 -36 0
35 36 37 0
-35 -37 0
-36 -37 0
37 38 39 0
-37 -39 0
-38 -39 0
-37 -38 40 0
37 -40 0
38 -40 0
39 40 41 0
-39 -41 0
-40 -41 0
33 -41 42 0
-33 -42 0
41 -42 0
42 40 43 0
-42 -43 0
-40 -43 0
36 -44 45 0
-36 -45 0
44 -45 0
-36 44 46 0
36 -46 0
-44 -46 0
45 46 47 0
-45 -47 0
-46 -47 0
47 48 49 0
-47 -49 0
-48 -49 0
-47 -48 50 0
47 -50 0
48 -50 0
49 50 51 0
-49 -51 0
-50 -51 0
43 -51 52 0
-43 -52 0
51 -52 0
52 50 53 0
-52 -53 0
-50 -53 0
46 -54 55 0
-46 -55 0
54 -55 0
-46 54 56 0
46 -56 0
-54 -56 0
55 56 57 0
-55 -57 0
-56 -57 0
57 58 59 0
-57 -59 0
-58 -59 0
-57 -58 60 0
57 -60 0
58 -60 0
59 60 61 0
-59 -61 0
-60 -61 0
-53 61 62 0
53 -62 0
-61 -62 0
53 -61 63 0
-53 -63 0
61 -63 0
62 63 64 0
-62 -64 0
-63 -64 0
56 65 66 0
-56 -66 0
-65 -66 0
66 57 67 0
-66 -67 0
-57 -67 0
54 65 68 0
-54 -68 0
-65 -68 0
67 68 69 0
-67 -69 0
-68 -69 0
36 -65 70 0
-36 -70 0
65 -70 0
70 44 71 0
-70 -71 0
-44 -71 0
-70 -44 72 0
70 -72 0
44 -72 0
71 72 73 0
-71 -73 0
-72 -73 0
26 -65 74 0
-26 -74 0
65 -74 0
-74 -34 75 0
74 -75 0
34 -75 0
74 34 76 0
-74 -76 0
-34 -76 0
75 76 77 0
-75 -77 0
-76 -77 0
16 -65 78 0
-16 -78 0
65 -78 0
78 24 79 0
-78 -79 0
-24 -79 0
-78 -24 80 0
78 -80 0
24 -80 0
79 80 81 0
-79 -81 0
-80 -81 0
6 -65 82 0
-6 -82 0
65 -82 0
82 14 83 0
-82 -83 0
-14 -83 0
-82 -14 84 0
82 -84 0
14 -84 0
83 84 85 0
-83 -85 0
-84 -85 0
-2 -65 86 0
2 -86 0
65 -86 0
86 5 87 0
-86 -87 0
-5 -87 0
-4 -65 88 0
4 -88 0
65 -88 0
87 88 89 0
-87 -89 0
-88 -89 0
-85 -89 90 0
85 -90 0
89 -90 0
-81 -90 91 0
81 -91 0
90 -91 0
-77 -91 92 0
77 -92 0
91 -92 0
-73 -92 93 0
73 -93 0
92 -93 0
69 93 94 0
-69 -94 0
-93 -94 0
-69 -93 95 0
69 -95 0
93 -95 0
94 95 96 0
-94 -96 0
-95 -96 0
64 96 97 0
-64 -97 0
-96 -97 0
-64 -96 98 0
64 -98 0
96 -98 0
97 98 99 0
-97 -99 0
-98 -99 0
-43 51 100 0
43 -100 0
-51 -100 0
100 52 101 0
-100 -101 0
-52 -101 0
73 92 102 0
-73 -102 0
-92 -102 0
102 93 103 0
-102 -103 0
-93 -103 0
101 103 104 0
-101 -104 0
-103 -104 0
-101 -103 105 0
101 -105 0
103 -105 0
104 105 106 0
-104 -106 0
-105 -106 0
-33 41 107 0
33 -107 0
-41 -107 0
107 42 108 0
-107 -108 0
-42 -108 0
77 91 109 0
-77 -109 0
-91 -109 0
109 92 110 0
-109 -110 0
-92 -110 0
108 -110 111 0
-108 -111 0
110 -111 0
-23 31 112 0
23 -112 0
-31 -112 0
112 32 113 0
-112 -113 0
-32 -113 0
81 90 114 0
-81 -114 0
-90 -114 0
114 91 115 0
-114 -115 0
-91 -115 0
113 -115 116 0
-113 -116 0
115 -116 0
111 116 117 0
-111 -117 0
-116 -117 0
3 11 118 0
-3 -118 0
-11 -118 0
118 12 119 0
-118 -119 0
-12 -119 0
89 6 120 0
-89 -120 0
-6 -120 0
119 -120 121 0
-119 -121 0
120 -121 0
121 -1 122 0
-121 -122 0
1 -122 0
-119 120 123 0
119 -123 0
-120 -123 0
-122 123 124 0
122 -124 0
-123 -124 0
-117 -124 125 0
117 -125 0
124 -125 0
106 -125 126 0
-106 -126 0
125 -126 0
-113 115 127 0
113 -127 0
-115 -127 0
-108 110 128 0
108 -128 0
-110 -128 0
127 128 129 0
-127 -129 0
-128 -129 0
-13 21 130 0
13 -130 0
-21 -130 0
130 22 131 0
-130 -131 0
-22 -131 0
85 89 132 0
-85 -132 0
-89 -132 0
132 90 133 0
-132 -133 0
-90 -133 0
131 -133 134 0
-131 -134 0
133 -134 0
-131 133 135 0
131 -135 0
-133 -135 0
134 135 136 0
-134 -136 0
-135 -136 0
-129 -136 137 0
129 -137 0
136 -137 0
-126 -137 138 0
126 -138 0
137 -138 0
66 139 140 0
-66 -140 0
-139 -140 0
-66 -139 141 0
66 -141 0
139 -141 0
140 141 142 0
-140 -142 0
-141 -142 0
-56 -65 143 0
56 -143 0
65 -143 0
143 -95 144 0
-143 -144 0
95 -144 0
142 144 145 0
-142 -145 0
-144 -145 0
-142 -144 146 0
142 -146 0
144 -146 0
145 146 147 0
-145 -147 0
-146 -147 0
63 60 148 0
-63 -148 0
-60 -148 0
147 -148 149 0
-147 -149 0
148 -149 0
-147 148 150 0
147 -150 0
-148 -150 0
149 150 151 0
-149 -151 0
-150 -151 0
-138 151 152 0
138 -152 0
-151 -152 0
99 -152 153 0
-99 -153 0
152 -153 0
153 0
